data;


param FN:= 8;
param D:= 100;
param U_Original:=
         1         1       -3.420463e-01
         2         1       -1.348307e+00
         3         1        7.943383e-01
         4         1       -2.173426e-01
         5         1       -5.372632e-02
         6         1       -2.092263e-01
         7         1        5.954882e-01
         8         1       -8.059176e-01
         9         1        1.490891e+00
        10         1       -9.507997e-01
        11         1        1.101971e+00
        12         1        2.038263e+00
        13         1       -7.674225e-01
        14         1       -1.069270e+00
        15         1        8.451315e-01
        16         1        3.178689e-01
        17         1        1.184556e+00
        18         1       -9.240365e-01
        19         1        4.662139e-01
        20         1        1.699865e+00
        21         1       -1.221956e+00
        22         1       -1.337885e+00
        23         1        1.484643e-01
        24         1        8.135675e-03
        25         1       -1.031340e+00
        26         1       -7.073910e-01
        27         1       -4.953501e-01
        28         1        5.507583e-01
        29         1        3.178068e-01
        30         1       -9.930221e-01
        31         1       -6.684045e-02
        32         1        1.094396e+00
        33         1        3.562091e-01
        34         1        3.123151e-01
        35         1       -4.332039e-02
        36         1        1.244135e+00
        37         1        2.152560e-01
        38         1        1.001875e+00
        39         1        1.612563e+00
        40         1        6.329263e-01
        41         1        1.329478e+00
        42         1       -3.377935e-01
        43         1       -4.212976e-01
        44         1       -6.475634e-01
        45         1       -1.883736e+00
        46         1       -1.414864e-01
        47         1       -3.446020e-01
        48         1       -4.722722e-01
        49         1        1.037371e+00
        50         1       -4.374042e-01
        51         1        5.357019e-01
        52         1       -2.225310e+00
        53         1       -2.883867e-02
        54         1       -2.831723e-01
        55         1        6.957564e-01
        56         1       -3.690447e-01
        57         1        5.846191e-01
        58         1        1.885256e+00
        59         1       -1.183017e+00
        60         1       -1.289296e+00
        61         1       -4.784736e-02
        62         1        6.477279e-01
        63         1        1.563453e+00
        64         1       -9.227089e-01
        65         1        7.475034e-01
        66         1        5.814469e-01
        67         1        1.565252e+00
        68         1        6.090657e-01
        69         1       -6.950111e-01
        70         1        1.101184e+00
        71         1       -9.766758e-01
        72         1        3.786389e-01
        73         1       -1.938844e+00
        74         1       -1.389838e+00
        75         1        2.529208e-01
        76         1        2.757582e+00
        77         1       -1.017120e+00
        78         1       -2.704873e+00
        79         1        8.222567e-01
        80         1       -7.670913e-01
        81         1       -1.912482e+00
        82         1       -2.082879e-01
        83         1       -3.672166e-01
        84         1        1.354794e-01
        85         1       -7.630986e-01
        86         1       -1.317233e+00
        87         1        1.759864e+00
        88         1       -1.331159e+00
        89         1        2.544137e-01
        90         1       -1.595349e-01
        91         1       -4.195087e-01
        92         1        7.139795e-01
        93         1       -7.988139e-01
        94         1        3.051010e-01
        95         1        2.357165e-01
        96         1        5.164466e-01
        97         1       -1.420721e+00
        98         1        7.022048e-01
        99         1        8.049185e-01
       100         1       -7.844939e-01
         1         2       -1.381399e+00
         2         2        4.657911e-02
         3         2       -8.744604e-02
         4         2        1.285735e+00
         5         2       -9.887512e-01
         6         2        1.351324e+00
         7         2        2.697981e-01
         8         2       -5.233983e-01
         9         2        7.435121e-02
        10         2       -7.164482e-01
        11         2       -9.849063e-01
        12         2        2.091391e-01
        13         2       -5.347676e-01
        14         2       -5.104415e-01
        15         2       -3.448433e-01
        16         2        4.762879e-01
        17         2        6.189698e-01
        18         2        4.532750e-01
        19         2        4.993243e-01
        20         2        2.604532e-01
        21         2       -1.123635e+00
        22         2       -1.065017e+00
        23         2        1.150803e-01
        24         2        1.118927e+00
        25         2       -2.044162e-01
        26         2       -1.298928e+00
        27         2       -1.374116e+00
        28         2       -3.223192e-01
        29         2       -4.655572e-01
        30         2        9.069105e-01
        31         2       -7.166660e-02
        32         2       -2.283772e-01
        33         2       -5.678286e-01
        34         2       -1.664127e+00
        35         2        6.668890e-01
        36         2       -9.378434e-01
        37         2       -1.083698e+00
        38         2       -7.951991e-01
        39         2       -1.077621e-01
        40         2       -6.707236e-01
        41         2       -3.318084e-01
        42         2        1.271970e+00
        43         2        1.807229e+00
        44         2       -4.622787e-01
        45         2        3.198287e-01
        46         2       -1.018971e+00
        47         2        9.904101e-01
        48         2        4.524937e-01
        49         2        8.614621e-01
        50         2       -7.676277e-01
        51         2       -5.835162e-01
        52         2        7.194415e-01
        53         2        3.819031e-01
        54         2        1.275398e+00
        55         2        2.046730e+00
        56         2       -7.115284e-01
        57         2        8.660303e-01
        58         2       -2.570863e+00
        59         2       -2.217018e+00
        60         2        1.355202e+00
        61         2        9.121078e-02
        62         2        1.498662e-01
        63         2       -1.397687e-01
        64         2       -1.345048e+00
        65         2        5.377603e-02
        66         2       -4.171831e-01
        67         2       -1.029955e+00
        68         2       -3.111605e-01
        69         2        1.397462e+00
        70         2       -1.906142e+00
        71         2        1.215023e+00
        72         2       -5.242034e-01
        73         2        9.321971e-01
        74         2        1.757394e-01
        75         2        5.754671e-01
        76         2        1.634498e+00
        77         2        6.082933e-02
        78         2        9.737560e-02
        79         2        5.856460e-01
        80         2       -6.423741e-03
        81         2       -6.376348e-01
        82         2       -9.548659e-01
        83         2        2.490307e-01
        84         2        7.311438e-03
        85         2       -1.431803e+00
        86         2        1.809968e-01
        87         2        6.747744e-01
        88         2       -6.142473e-01
        89         2        8.910804e-01
        90         2       -8.963815e-01
        91         2       -3.160405e-01
        92         2        1.218456e+00
        93         2       -7.978375e-01
        94         2       -1.794138e+00
        95         2        1.402624e+00
        96         2        1.442878e+00
        97         2       -9.106487e-02
        98         2       -3.617036e-01
        99         2        5.046827e-01
       100         2        1.846742e-01
         1         3       -3.688540e-01
         2         3        2.302913e+00
         3         3       -1.027280e+00
         4         3        7.297468e-01
         5         3        1.894208e+00
         6         3       -7.013139e-02
         7         3       -1.284618e+00
         8         3       -1.024299e+00
         9         3        3.662538e-01
        10         3       -4.717059e-01
        11         3        8.471849e-01
        12         3        5.639759e-01
        13         3       -9.259369e-01
        14         3       -3.380242e-01
        15         3        1.281416e+00
        16         3       -7.075346e-01
        17         3        1.591002e-01
        18         3        3.419281e-01
        19         3       -5.550135e-01
        20         3       -1.610929e+00
        21         3        1.348062e+00
        22         3        1.053015e+00
        23         3        2.071703e+00
        24         3        8.284536e-01
        25         3       -1.846080e-01
        26         3       -1.251039e+00
        27         3        6.895468e-01
        28         3       -1.179591e+00
        29         3        1.604707e+00
        30         3       -1.940896e+00
        31         3       -1.482028e+00
        32         3        8.199590e-01
        33         3        7.367107e-02
        34         3       -8.062118e-01
        35         3        1.551711e+00
        36         3       -2.829824e-01
        37         3        5.569216e-01
        38         3       -5.776039e-01
        39         3        1.148844e+00
        40         3        4.612190e-01
        41         3       -1.281871e+00
        42         3        1.796169e-01
        43         3        1.309508e+00
        44         3        3.425350e-01
        45         3        3.377633e-01
        46         3        9.207337e-01
        47         3       -1.530117e-01
        48         3       -8.018652e-01
        49         3        1.692167e-01
        50         3       -2.146075e+00
        51         3        1.247400e+00
        52         3       -1.240140e+00
        53         3       -2.609493e-01
        54         3       -8.249913e-01
        55         3       -1.384984e+00
        56         3        9.171052e-01
        57         3       -6.481899e-01
        58         3        1.042283e-01
        59         3       -9.887132e-01
        60         3        2.663909e-01
        61         3        1.630028e+00
        62         3       -5.509185e-01
        63         3        4.518996e-01
        64         3        1.388586e+00
        65         3       -6.468544e-01
        66         3       -9.813493e-01
        67         3        1.278923e+00
        68         3       -1.629053e-03
        69         3       -3.515499e-01
        70         3        3.744470e-01
        71         3       -7.785669e-01
        72         3       -2.028370e+00
        73         3        8.375589e-01
        74         3        4.968760e-01
        75         3        1.202796e+00
        76         3        1.666627e-01
        77         3       -5.892190e-01
        78         3        1.840122e-01
        79         3        2.426940e-01
        80         3        3.510783e-01
        81         3       -6.359418e-01
        82         3       -9.598573e-01
        83         3        9.819129e-01
        84         3       -9.404558e-01
        85         3       -1.030436e+00
        86         3       -1.433041e+00
        87         3        7.431297e-01
        88         3        4.343521e-01
        89         3       -4.183469e-01
        90         3        4.973868e-01
        91         3       -7.582543e-01
        92         3        4.003063e-01
        93         3        1.224771e+00
        94         3       -2.303474e-01
        95         3        6.127351e-01
        96         3       -6.127083e-01
        97         3       -1.505372e+00
        98         3        6.394799e-01
        99         3       -2.013338e+00
       100         3        4.271902e-01
         1         4       -1.135590e+00
         2         4       -1.024990e+00
         3         4       -1.047667e+00
         4         4       -1.192754e-01
         5         4        1.451954e+00
         6         4        2.306682e+00
         7         4        8.032874e-01
         8         4       -1.352892e-01
         9         4        8.447258e-01
        10         4       -1.015096e+00
        11         4        1.523520e+00
        12         4       -2.152429e-01
        13         4       -5.456308e-02
        14         4       -7.985756e-01
        15         4       -8.244707e-02
        16         4        1.584050e+00
        17         4        1.091581e+00
        18         4        7.295849e-01
        19         4       -6.360786e-01
        20         4        1.180983e-01
        21         4       -8.177883e-02
        22         4       -2.200544e-01
        23         4        5.712372e-01
        24         4        2.002449e-01
        25         4       -1.186891e+00
        26         4       -1.322052e+00
        27         4       -2.293400e-01
        28         4       -1.029814e+00
        29         4        8.419867e-01
        30         4        2.662530e-01
        31         4       -6.224046e-01
        32         4        1.019853e+00
        33         4       -1.780148e-01
        34         4       -7.385862e-01
        35         4        1.314762e+00
        36         4       -6.222221e-01
        37         4       -1.314066e+00
        38         4       -3.109806e-01
        39         4       -2.265527e-01
        40         4       -8.699052e-01
        41         4        1.870209e+00
        42         4       -1.239200e+00
        43         4        1.718725e-01
        44         4        6.715082e-01
        45         4       -5.463538e-01
        46         4        3.076215e-01
        47         4        1.402726e+00
        48         4       -9.578524e-01
        49         4       -7.563883e-02
        50         4        3.111378e-01
        51         4        2.410101e+00
        52         4       -1.821949e-01
        53         4        3.047544e+00
        54         4        1.664137e+00
        55         4       -5.907987e-01
        56         4        1.593576e+00
        57         4        1.088459e+00
        58         4        1.432585e+00
        59         4       -4.278195e-01
        60         4       -7.123442e-01
        61         4       -3.290235e-01
        62         4        1.174935e+00
        63         4        3.253517e-01
        64         4       -2.647979e-02
        65         4        1.902392e-01
        66         4       -4.084129e-01
        67         4       -6.722675e-01
        68         4       -8.320519e-01
        69         4        1.179929e+00
        70         4       -3.108663e-01
        71         4       -5.485768e-02
        72         4       -2.922793e-01
        73         4       -4.288756e-01
        74         4        1.745623e-01
        75         4       -4.385327e-01
        76         4       -4.722851e-01
        77         4       -2.482382e+00
        78         4       -3.426672e-01
        79         4       -5.974639e-01
        80         4        4.359637e-01
        81         4       -1.172643e+00
        82         4        3.102724e-01
        83         4       -5.188638e-01
        84         4       -1.338777e-01
        85         4       -1.104555e+00
        86         4       -1.512434e+00
        87         4       -1.579727e-01
        88         4        2.638087e-01
        89         4        4.400650e-01
        90         4       -2.443476e+00
        91         4        4.080266e-01
        92         4        7.520314e-01
        93         4       -1.081268e-01
        94         4       -9.115516e-01
        95         4       -1.093036e+00
        96         4       -4.554075e-01
        97         4       -6.819007e-02
        98         4        2.165662e-01
        99         4       -2.115057e-01
       100         4        4.621287e-02
         1         5        1.034566e+00
         2         5       -2.437624e+00
         3         5       -1.280821e+00
         4         5       -7.959159e-01
         5         5       -1.408512e+00
         6         5       -3.114329e-01
         7         5       -3.092671e-01
         8         5        1.000631e+00
         9         5       -3.624567e-01
        10         5        1.178929e+00
        11         5        8.210540e-01
        12         5        1.348561e+00
        13         5       -3.915057e-01
        14         5       -2.410634e+00
        15         5       -1.591029e+00
        16         5       -8.017030e-01
        17         5       -2.746969e-02
        18         5        1.887495e-01
        19         5        7.209298e-01
        20         5        2.832593e+00
        21         5       -3.953457e-01
        22         5        7.359065e-01
        23         5        3.112343e-02
        24         5       -1.917165e-01
        25         5       -1.029797e+00
        26         5        1.178656e+00
        27         5       -1.024333e+00
        28         5        1.066860e+00
        29         5       -2.894794e-01
        30         5       -6.256429e-01
        31         5        3.406436e-01
        32         5       -3.551016e-01
        33         5       -2.754361e+00
        34         5       -1.431433e+00
        35         5       -1.245198e+00
        36         5        1.209188e+00
        37         5        8.921893e-01
        38         5        2.124435e-01
        39         5        2.471991e-01
        40         5        3.394258e-01
        41         5        2.160536e+00
        42         5       -5.033622e-01
        43         5        2.469254e-01
        44         5       -1.101549e+00
        45         5        1.291226e-01
        46         5       -5.380586e-01
        47         5        6.782009e-01
        48         5        1.758243e+00
        49         5        8.665691e-02
        50         5        7.182041e-01
        51         5        3.112971e-01
        52         5        9.012582e-01
        53         5       -1.403561e+00
        54         5       -6.306529e-01
        55         5        4.487253e-01
        56         5        1.251216e+00
        57         5       -9.573673e-01
        58         5       -2.093647e+00
        59         5       -1.171222e+00
        60         5       -6.829365e-01
        61         5        3.992655e-01
        62         5        2.593566e+00
        63         5       -5.085206e-01
        64         5        7.615189e-01
        65         5        9.689510e-01
        66         5       -2.059694e-01
        67         5       -1.649092e-01
        68         5       -1.184567e-01
        69         5       -4.670139e-01
        70         5        2.832231e-01
        71         5        1.385063e+00
        72         5       -1.296463e+00
        73         5        1.023435e+00
        74         5       -2.004247e+00
        75         5       -2.186837e+00
        76         5        7.785021e-01
        77         5        7.070941e-01
        78         5        8.566403e-01
        79         5        1.980107e+00
        80         5       -1.523809e+00
        81         5        1.849318e+00
        82         5       -1.745900e+00
        83         5        5.395522e-01
        84         5       -2.156764e+00
        85         5        1.068346e+00
        86         5       -2.086800e-01
        87         5       -2.269986e-01
        88         5        7.321065e-01
        89         5       -4.088349e-01
        90         5       -5.277458e-01
        91         5       -1.791182e+00
        92         5       -1.322597e+00
        93         5       -3.401467e-01
        94         5        1.289878e+00
        95         5        2.160754e+00
        96         5       -2.060680e+00
        97         5       -9.054535e-01
        98         5       -7.179365e-01
        99         5       -7.252875e-01
       100         5       -1.112701e-01
;
param X_Original:=
    1        1.121913e+00
    2       -3.864279e-01
    3        3.257478e-01
    4        1.893959e-01
    5        2.353942e+00
    6       -8.714930e-01
    7       -2.891983e-01
    8        3.908835e-01
    9       -1.707951e-01
   10        3.439428e-01
   11       -5.527150e-01
   12       -9.050015e-01
   13        1.057577e+00
   14        4.493105e-01
   15       -3.886429e-01
   16       -1.213560e-01
   17        4.182546e-01
   18       -9.463918e-01
   19        4.072085e-01
   20        6.796065e-01
   21       -7.433529e-01
   22       -3.025642e-01
   23       -1.073210e+00
   24       -1.419143e+00
   25        4.072811e-02
   26        6.588163e-01
   27       -3.718301e-01
   28        4.292699e-01
   29        4.884053e-01
   30        1.090299e+00
   31       -2.330662e+00
   32       -7.094201e-01
   33       -5.947388e-01
   34       -8.388301e-01
   35       -1.835814e+00
   36        2.602050e+00
   37       -1.912074e+00
   38       -1.071487e+00
   39       -3.545251e-01
   40        1.787480e+00
   41       -2.054332e+00
   42       -3.466061e-02
   43       -3.323875e-01
   44        1.456719e+00
   45        1.090568e+00
   46        4.775782e-01
   47        1.373988e+00
   48        6.139863e-01
   49        2.490828e-01
   50       -1.174782e+00
   51       -1.090702e+00
   52        1.592107e+00
   53       -1.894182e+00
   54       -8.525716e-01
   55       -9.592789e-01
   56        2.185559e+00
   57       -4.269509e-01
   58        5.672516e-02
   59       -1.364907e+00
   60       -2.906128e-01
   61        2.228452e+00
   62       -8.266681e-01
   63        7.860333e-01
   64       -3.621823e-01
   65       -2.049488e-01
   66       -3.639762e-01
   67       -2.501159e-01
   68        3.404091e-01
   69        1.396068e-01
   70       -2.113566e+00
   71       -1.897215e-01
   72        1.832081e+00
   73       -7.846818e-01
   74       -5.998286e-01
   75        1.399612e+00
   76        5.006871e-01
   77       -1.848180e+00
   78       -1.529051e+00
   79       -2.175647e-01
   80        1.508788e+00
   81       -1.400445e+00
   82        1.051312e+00
   83        1.487341e-01
   84       -1.708474e+00
   85        2.277341e+00
   86        1.002816e+00
   87       -3.987439e-01
   88        1.501977e+00
   89        9.786107e-02
   90        4.582580e-01
   91       -1.551938e+00
   92        2.131206e-01
   93        1.741003e+00
   94       -2.558178e+00
   95       -1.009244e+00
   96        5.291062e-01
   97       -1.371674e-01
   98       -1.640013e+00
   99       -1.676089e+00
  100        5.633717e-01
;
param outliervec_original :=
    1    1
    2    1
    3    1
    4    1
    5    1
    6    1
    7    0
    8    1
    9    1
   10    1
   11    1
   12    1
   13    1
   14    1
   15    1
   16    1
   17    1
   18    1
   19    1
   20    1
   21    1
   22    1
   23    1
   24    1
   25    1
   26    1
   27    1
   28    1
   29    1
   30    1
   31    1
   32    1
   33    1
   34    1
   35    1
   36    1
   37    0
   38    1
   39    1
   40    1
   41    0
   42    0
   43    1
   44    1
   45    1
   46    1
   47    1
   48    1
   49    1
   50    1
   51    1
   52    0
   53    1
   54    1
   55    1
   56    1
   57    1
   58    0
   59    1
   60    1
   61    1
   62    1
   63    1
   64    1
   65    1
   66    1
   67    1
   68    1
   69    1
   70    0
   71    1
   72    1
   73    1
   74    1
   75    1
   76    1
   77    0
   78    1
   79    1
   80    1
   81    1
   82    0
   83    1
   84    1
   85    1
   86    1
   87    1
   88    1
   89    1
   90    1
   91    1
   92    1
   93    0
   94    0
   95    1
   96    1
   97    1
   98    1
   99    0
  100    1
;
param d:= 56;
param r:=5;
param p:=0.880000;
param M:=1000;
param U:=
         1         1       -3.420463e-01
         2         1       -1.348307e+00
         3         1       -2.092263e-01
         4         1        5.954882e-01
         5         1       -8.059176e-01
         6         1        1.490891e+00
         7         1       -9.507997e-01
         8         1        1.101971e+00
         9         1        2.038263e+00
        10         1       -7.674225e-01
        11         1       -1.069270e+00
        12         1        8.451315e-01
        13         1        3.178689e-01
        14         1       -9.240365e-01
        15         1        4.662139e-01
        16         1        1.699865e+00
        17         1       -1.221956e+00
        18         1       -1.337885e+00
        19         1        1.484643e-01
        20         1        8.135675e-03
        21         1       -1.031340e+00
        22         1       -4.953501e-01
        23         1        5.507583e-01
        24         1       -9.930221e-01
        25         1        1.094396e+00
        26         1       -4.332039e-02
        27         1        1.612563e+00
        28         1       -3.377935e-01
        29         1       -1.414864e-01
        30         1       -4.722722e-01
        31         1        1.037371e+00
        32         1        5.357019e-01
        33         1       -2.883867e-02
        34         1       -2.831723e-01
        35         1        5.846191e-01
        36         1        1.885256e+00
        37         1       -1.289296e+00
        38         1        6.477279e-01
        39         1       -9.227089e-01
        40         1        7.475034e-01
        41         1        1.565252e+00
        42         1        6.090657e-01
        43         1       -9.766758e-01
        44         1        3.786389e-01
        45         1       -1.938844e+00
        46         1       -1.389838e+00
        47         1        8.222567e-01
        48         1       -2.082879e-01
        49         1       -3.672166e-01
        50         1       -7.630986e-01
        51         1       -1.317233e+00
        52         1        1.759864e+00
        53         1        2.544137e-01
        54         1       -1.595349e-01
        55         1        2.357165e-01
        56         1        5.164466e-01
         1         2       -1.381399e+00
         2         2        4.657911e-02
         3         2        1.351324e+00
         4         2        2.697981e-01
         5         2       -5.233983e-01
         6         2        7.435121e-02
         7         2       -7.164482e-01
         8         2       -9.849063e-01
         9         2        2.091391e-01
        10         2       -5.347676e-01
        11         2       -5.104415e-01
        12         2       -3.448433e-01
        13         2        4.762879e-01
        14         2        4.532750e-01
        15         2        4.993243e-01
        16         2        2.604532e-01
        17         2       -1.123635e+00
        18         2       -1.065017e+00
        19         2        1.150803e-01
        20         2        1.118927e+00
        21         2       -2.044162e-01
        22         2       -1.374116e+00
        23         2       -3.223192e-01
        24         2        9.069105e-01
        25         2       -2.283772e-01
        26         2        6.668890e-01
        27         2       -1.077621e-01
        28         2        1.271970e+00
        29         2       -1.018971e+00
        30         2        4.524937e-01
        31         2        8.614621e-01
        32         2       -5.835162e-01
        33         2        3.819031e-01
        34         2        1.275398e+00
        35         2        8.660303e-01
        36         2       -2.570863e+00
        37         2        1.355202e+00
        38         2        1.498662e-01
        39         2       -1.345048e+00
        40         2        5.377603e-02
        41         2       -1.029955e+00
        42         2       -3.111605e-01
        43         2        1.215023e+00
        44         2       -5.242034e-01
        45         2        9.321971e-01
        46         2        1.757394e-01
        47         2        5.856460e-01
        48         2       -9.548659e-01
        49         2        2.490307e-01
        50         2       -1.431803e+00
        51         2        1.809968e-01
        52         2        6.747744e-01
        53         2        8.910804e-01
        54         2       -8.963815e-01
        55         2        1.402624e+00
        56         2        1.442878e+00
         1         3       -3.688540e-01
         2         3        2.302913e+00
         3         3       -7.013139e-02
         4         3       -1.284618e+00
         5         3       -1.024299e+00
         6         3        3.662538e-01
         7         3       -4.717059e-01
         8         3        8.471849e-01
         9         3        5.639759e-01
        10         3       -9.259369e-01
        11         3       -3.380242e-01
        12         3        1.281416e+00
        13         3       -7.075346e-01
        14         3        3.419281e-01
        15         3       -5.550135e-01
        16         3       -1.610929e+00
        17         3        1.348062e+00
        18         3        1.053015e+00
        19         3        2.071703e+00
        20         3        8.284536e-01
        21         3       -1.846080e-01
        22         3        6.895468e-01
        23         3       -1.179591e+00
        24         3       -1.940896e+00
        25         3        8.199590e-01
        26         3        1.551711e+00
        27         3        1.148844e+00
        28         3        1.796169e-01
        29         3        9.207337e-01
        30         3       -8.018652e-01
        31         3        1.692167e-01
        32         3        1.247400e+00
        33         3       -2.609493e-01
        34         3       -8.249913e-01
        35         3       -6.481899e-01
        36         3        1.042283e-01
        37         3        2.663909e-01
        38         3       -5.509185e-01
        39         3        1.388586e+00
        40         3       -6.468544e-01
        41         3        1.278923e+00
        42         3       -1.629053e-03
        43         3       -7.785669e-01
        44         3       -2.028370e+00
        45         3        8.375589e-01
        46         3        4.968760e-01
        47         3        2.426940e-01
        48         3       -9.598573e-01
        49         3        9.819129e-01
        50         3       -1.030436e+00
        51         3       -1.433041e+00
        52         3        7.431297e-01
        53         3       -4.183469e-01
        54         3        4.973868e-01
        55         3        6.127351e-01
        56         3       -6.127083e-01
         1         4       -1.135590e+00
         2         4       -1.024990e+00
         3         4        2.306682e+00
         4         4        8.032874e-01
         5         4       -1.352892e-01
         6         4        8.447258e-01
         7         4       -1.015096e+00
         8         4        1.523520e+00
         9         4       -2.152429e-01
        10         4       -5.456308e-02
        11         4       -7.985756e-01
        12         4       -8.244707e-02
        13         4        1.584050e+00
        14         4        7.295849e-01
        15         4       -6.360786e-01
        16         4        1.180983e-01
        17         4       -8.177883e-02
        18         4       -2.200544e-01
        19         4        5.712372e-01
        20         4        2.002449e-01
        21         4       -1.186891e+00
        22         4       -2.293400e-01
        23         4       -1.029814e+00
        24         4        2.662530e-01
        25         4        1.019853e+00
        26         4        1.314762e+00
        27         4       -2.265527e-01
        28         4       -1.239200e+00
        29         4        3.076215e-01
        30         4       -9.578524e-01
        31         4       -7.563883e-02
        32         4        2.410101e+00
        33         4        3.047544e+00
        34         4        1.664137e+00
        35         4        1.088459e+00
        36         4        1.432585e+00
        37         4       -7.123442e-01
        38         4        1.174935e+00
        39         4       -2.647979e-02
        40         4        1.902392e-01
        41         4       -6.722675e-01
        42         4       -8.320519e-01
        43         4       -5.485768e-02
        44         4       -2.922793e-01
        45         4       -4.288756e-01
        46         4        1.745623e-01
        47         4       -5.974639e-01
        48         4        3.102724e-01
        49         4       -5.188638e-01
        50         4       -1.104555e+00
        51         4       -1.512434e+00
        52         4       -1.579727e-01
        53         4        4.400650e-01
        54         4       -2.443476e+00
        55         4       -1.093036e+00
        56         4       -4.554075e-01
         1         5        1.034566e+00
         2         5       -2.437624e+00
         3         5       -3.114329e-01
         4         5       -3.092671e-01
         5         5        1.000631e+00
         6         5       -3.624567e-01
         7         5        1.178929e+00
         8         5        8.210540e-01
         9         5        1.348561e+00
        10         5       -3.915057e-01
        11         5       -2.410634e+00
        12         5       -1.591029e+00
        13         5       -8.017030e-01
        14         5        1.887495e-01
        15         5        7.209298e-01
        16         5        2.832593e+00
        17         5       -3.953457e-01
        18         5        7.359065e-01
        19         5        3.112343e-02
        20         5       -1.917165e-01
        21         5       -1.029797e+00
        22         5       -1.024333e+00
        23         5        1.066860e+00
        24         5       -6.256429e-01
        25         5       -3.551016e-01
        26         5       -1.245198e+00
        27         5        2.471991e-01
        28         5       -5.033622e-01
        29         5       -5.380586e-01
        30         5        1.758243e+00
        31         5        8.665691e-02
        32         5        3.112971e-01
        33         5       -1.403561e+00
        34         5       -6.306529e-01
        35         5       -9.573673e-01
        36         5       -2.093647e+00
        37         5       -6.829365e-01
        38         5        2.593566e+00
        39         5        7.615189e-01
        40         5        9.689510e-01
        41         5       -1.649092e-01
        42         5       -1.184567e-01
        43         5        1.385063e+00
        44         5       -1.296463e+00
        45         5        1.023435e+00
        46         5       -2.004247e+00
        47         5        1.980107e+00
        48         5       -1.745900e+00
        49         5        5.395522e-01
        50         5        1.068346e+00
        51         5       -2.086800e-01
        52         5       -2.269986e-01
        53         5       -4.088349e-01
        54         5       -5.277458e-01
        55         5        2.160754e+00
        56         5       -2.060680e+00
;

param theta:=
    1       -1.279735e+00
    2        1.532619e-01
    3        5.264775e-01
    4        9.494318e-01
    5       -6.459613e-01
;
param X_true:=
    1       -1.659615e+00
    2        3.638894e+00
    3        2.894147e+00
    4       -2.891983e-01
    5       -2.912435e-01
    6       -5.724801e-01
    7       -9.014223e-01
    8       -3.330880e-01
    9       -3.329572e+00
   10        5.342852e-01
   11        1.829352e+00
   12        4.797016e-01
   13        1.450255e+00
   14        1.801399e+00
   15       -1.798345e+00
   16       -4.796470e+00
   17        2.354236e+00
   18        1.396896e+00
   19        1.429411e+00
   20        9.116889e-01
   21        8.175165e-01
   22        1.241648e+00
   23       -3.034423e+00
   24        1.270922e+00
   25        2.377370e-01
   26        2.996393e+00
   27       -1.867615e+00
   28       -3.466061e-02
   29        1.093874e+00
   30       -1.860548e+00
   31       -1.186618e+00
   32        2.171593e+00
   33        3.892241e+00
   34        2.187274e+00
   35        7.020355e-01
   36        5.672516e-02
   37        1.667865e+00
   38       -1.734055e+00
   39        1.272616e+00
   40       -1.911160e+00
   41       -1.945846e+00
   42       -1.411200e+00
   43       -2.426001e-02
   44       -8.800681e-01
   45        1.984153e+00
   46        3.510246e+00
   47       -2.650112e+00
   48        1.051312e+00
   49       -4.689680e-02
   50       -1.399986e+00
   51       -4.234894e-01
   52       -1.665340e+00
   53        2.491252e-01
   54       -1.580993e+00
   55       -2.207195e+00
   56        3.010642e-01
;
param X:=
    1        1.121913e+00
    2       -3.864279e-01
    3       -8.714930e-01
    4       -2.891983e-01
    5        3.908835e-01
    6       -1.707951e-01
    7        3.439428e-01
    8       -5.527150e-01
    9       -9.050015e-01
   10        1.057577e+00
   11        4.493105e-01
   12       -3.886429e-01
   13       -1.213560e-01
   14       -9.463918e-01
   15        4.072085e-01
   16        6.796065e-01
   17       -7.433529e-01
   18       -3.025642e-01
   19       -1.073210e+00
   20       -1.419143e+00
   21        4.072811e-02
   22       -3.718301e-01
   23        4.292699e-01
   24        1.090299e+00
   25       -7.094201e-01
   26       -1.835814e+00
   27       -3.545251e-01
   28       -3.466061e-02
   29        4.775782e-01
   30        6.139863e-01
   31        2.490828e-01
   32       -1.090702e+00
   33       -1.894182e+00
   34       -8.525716e-01
   35       -4.269509e-01
   36        5.672516e-02
   37       -2.906128e-01
   38       -8.266681e-01
   39       -3.621823e-01
   40       -2.049488e-01
   41       -2.501159e-01
   42        3.404091e-01
   43       -1.897215e-01
   44        1.832081e+00
   45       -7.846818e-01
   46       -5.998286e-01
   47       -2.175647e-01
   48        1.051312e+00
   49        1.487341e-01
   50        2.277341e+00
   51        1.002816e+00
   52       -3.987439e-01
   53        9.786107e-02
   54        4.582580e-01
   55       -1.009244e+00
   56        5.291062e-01
;
param outliervec:=
    1    1
    2    1
    3    1
    4    0
    5    1
    6    1
    7    1
    8    1
    9    1
   10    1
   11    1
   12    1
   13    1
   14    1
   15    1
   16    1
   17    1
   18    1
   19    1
   20    1
   21    1
   22    1
   23    1
   24    1
   25    1
   26    1
   27    1
   28    0
   29    1
   30    1
   31    1
   32    1
   33    1
   34    1
   35    1
   36    0
   37    1
   38    1
   39    1
   40    1
   41    1
   42    1
   43    1
   44    1
   45    1
   46    1
   47    1
   48    0
   49    1
   50    1
   51    1
   52    1
   53    1
   54    1
   55    1
   56    1
; 
param greedy_time :=         5.766413e+00
;